% Logging successfully configured
%%%mzn-stat: initTime=0.009245964
%%%mzn-stat: objective=514
%%%mzn-stat: nodes=36247
%%%mzn-stat: restarts=0
%%%mzn-stat: peakDepth=412
%%%mzn-stat: solveTime=8.784023551
%%%mzn-stat: variables=824
%%%mzn-stat: propagators=583
%%%mzn-stat: failures=20381
%%%mzn-stat: propagations=720700
%%%mzn-stat: nogoods=20381
%%%mzn-stat: numAtomicConstraintsPropagated=0
%%%mzn-stat: allDifferentNumber1PropagationsTotal=106632
%%%mzn-stat: allDifferentNumber1PropagationsThatFoundConflict=1096
%%%mzn-stat: allDifferentNumber1PropagationsThatPruned=57070
%%%mzn-stat: allDifferentNumber1TotalValuesPruned=185018
%%%mzn-stat: allDifferentNumber1TotalHallSetSizeConflict=7298
%%%mzn-stat: allDifferentNumber1NumberOfConflicts=1096
%%%mzn-stat: allDifferentNumber1MaxHallSetSizeConflict=12
%%%mzn-stat: allDifferentNumber1TotalPruningHallSetSize=384665
%%%mzn-stat: allDifferentNumber1NumberOfPruningExplanations=185018
%%%mzn-stat: allDifferentNumber1MaxPruningHallSetSize=28
%%%mzn-stat: allDifferentNumber1TotalFixedEdgesAtConflict=44513
%%%mzn-stat: allDifferentNumber1TotalVarsInvolvedInPruning=164329
%%%mzn-stat: allDifferentNumber1MaxValuesPrunedFromSingleVar=7
%%%mzn-stat: allDifferentNumber1TotalSccSizeAtPruning=194419
%%%mzn-stat: allDifferentNumber1NumberOfSccPruningCalls=57070
%%%mzn-stat: circuitNumber2PropagationsThatFoundConflict=18984
%%%mzn-stat: circuitNumber2TotalFixedEdgesAtConflict=820215
%%%mzn-stat: circuitNumber2NumberOfConflicts=18984
%%%mzn-stat: circuitNumber2PropagationsThatPruned=15715
%%%mzn-stat: circuitNumber2PropagationsTotal=66335
%%%mzn-stat: AverageConflictSize=26.41636818605564
%%%mzn-stat: NumUnitNogoodsLearned=0
%%%mzn-stat: AverageLearnedNogoodLength=26.708552082822237
%%%mzn-stat: AverageBacktrackAmount=0
%%%mzn-stat: AverageLbd=18.87493253520436
%%%mzn-stat: 2AutonomousSearchNumBackupCalled=376
%%%mzn-stat: 2AutonomousSearchNumPredicatesRemoved=0
%%%mzn-stat: 2AutonomousSearchNumCalls=377
%%%mzn-stat: 2AutonomousSearchNumPredicatesAdded=1844
%%%mzn-stat: 2AutonomousSearchAverageSizeOfHeap=4.891246684350133
%%%mzn-stat: 2AutonomousSearchNumAssignedPredicatesEncountered=1844
%%%mzn-stat-end
maxleg = 514;
succ = array1d(1..50,[22, 3, 4, 12, 7, 23, 6, 15, 11, 2, 13, 14, 17, 31, 20, 5, 18, 19, 21, 40, 41, 16, 10, 8, 37, 1, 36, 9, 32, 38, 50, 26, 34, 42, 30, 45, 33, 39, 47, 44, 43, 46, 49, 27, 25, 29, 48, 28, 24, 35]);
% time elapsed: 16.90 s
----------
%%%mzn-stat: initTime=0.009245964
%%%mzn-stat: objective=446
%%%mzn-stat: nodes=36959
%%%mzn-stat: restarts=0
%%%mzn-stat: peakDepth=412
%%%mzn-stat: solveTime=8.955569248
%%%mzn-stat: variables=824
%%%mzn-stat: propagators=583
%%%mzn-stat: failures=20640
%%%mzn-stat: propagations=732105
%%%mzn-stat: nogoods=20640
%%%mzn-stat: numAtomicConstraintsPropagated=0
%%%mzn-stat: allDifferentNumber1PropagationsTotal=108070
%%%mzn-stat: allDifferentNumber1PropagationsThatFoundConflict=1179
%%%mzn-stat: allDifferentNumber1PropagationsThatPruned=57970
%%%mzn-stat: allDifferentNumber1TotalValuesPruned=189750
%%%mzn-stat: allDifferentNumber1TotalHallSetSizeConflict=8013
%%%mzn-stat: allDifferentNumber1NumberOfConflicts=1179
%%%mzn-stat: allDifferentNumber1MaxHallSetSizeConflict=12
%%%mzn-stat: allDifferentNumber1TotalPruningHallSetSize=405063
%%%mzn-stat: allDifferentNumber1NumberOfPruningExplanations=189750
%%%mzn-stat: allDifferentNumber1MaxPruningHallSetSize=28
%%%mzn-stat: allDifferentNumber1TotalFixedEdgesAtConflict=47632
%%%mzn-stat: allDifferentNumber1TotalVarsInvolvedInPruning=167865
%%%mzn-stat: allDifferentNumber1MaxValuesPrunedFromSingleVar=7
%%%mzn-stat: allDifferentNumber1TotalSccSizeAtPruning=204275
%%%mzn-stat: allDifferentNumber1NumberOfSccPruningCalls=57970
%%%mzn-stat: circuitNumber2PropagationsThatFoundConflict=19126
%%%mzn-stat: circuitNumber2TotalFixedEdgesAtConflict=825925
%%%mzn-stat: circuitNumber2NumberOfConflicts=19126
%%%mzn-stat: circuitNumber2PropagationsThatPruned=15934
%%%mzn-stat: circuitNumber2PropagationsTotal=67121
%%%mzn-stat: AverageConflictSize=26.374176356589146
%%%mzn-stat: NumUnitNogoodsLearned=0
%%%mzn-stat: AverageLearnedNogoodLength=26.89966085271318
%%%mzn-stat: AverageBacktrackAmount=0
%%%mzn-stat: AverageLbd=18.899273255813952
%%%mzn-stat: 2AutonomousSearchNumBackupCalled=750
%%%mzn-stat: 2AutonomousSearchNumPredicatesRemoved=0
%%%mzn-stat: 2AutonomousSearchNumCalls=752
%%%mzn-stat: 2AutonomousSearchNumPredicatesAdded=3498
%%%mzn-stat: 2AutonomousSearchAverageSizeOfHeap=5.0186170212765955
%%%mzn-stat: 2AutonomousSearchNumAssignedPredicatesEncountered=3774
%%%mzn-stat-end
maxleg = 446;
succ = array1d(1..50,[22, 3, 4, 12, 7, 23, 6, 15, 11, 2, 13, 14, 17, 31, 20, 5, 18, 19, 30, 40, 9, 16, 10, 8, 37, 1, 36, 41, 32, 38, 50, 26, 34, 42, 39, 45, 33, 24, 47, 44, 43, 46, 21, 27, 25, 29, 48, 49, 28, 35]);
% time elapsed: 17.04 s
----------
%%%mzn-stat: initTime=0.009245964
%%%mzn-stat: objective=446
%%%mzn-stat: nodes=3169585
%%%mzn-stat: restarts=0
%%%mzn-stat: peakDepth=412
%%%mzn-stat: solveTime=1791.699293701
%%%mzn-stat: variables=824
%%%mzn-stat: propagators=583
%%%mzn-stat: failures=2499149
%%%mzn-stat: propagations=83925791
%%%mzn-stat: nogoods=2499149
%%%mzn-stat: numAtomicConstraintsPropagated=0
%%%mzn-stat: allDifferentNumber1PropagationsTotal=10544501
%%%mzn-stat: allDifferentNumber1PropagationsThatFoundConflict=98138
%%%mzn-stat: allDifferentNumber1PropagationsThatPruned=6510557
%%%mzn-stat: allDifferentNumber1TotalValuesPruned=20035037
%%%mzn-stat: allDifferentNumber1TotalHallSetSizeConflict=500510
%%%mzn-stat: allDifferentNumber1NumberOfConflicts=98138
%%%mzn-stat: allDifferentNumber1MaxHallSetSizeConflict=27
%%%mzn-stat: allDifferentNumber1TotalPruningHallSetSize=47385218
%%%mzn-stat: allDifferentNumber1NumberOfPruningExplanations=20035037
%%%mzn-stat: allDifferentNumber1MaxPruningHallSetSize=34
%%%mzn-stat: allDifferentNumber1TotalFixedEdgesAtConflict=4032671
%%%mzn-stat: allDifferentNumber1TotalVarsInvolvedInPruning=16509632
%%%mzn-stat: allDifferentNumber1MaxValuesPrunedFromSingleVar=7
%%%mzn-stat: allDifferentNumber1TotalSccSizeAtPruning=26875330
%%%mzn-stat: allDifferentNumber1NumberOfSccPruningCalls=6510557
%%%mzn-stat: circuitNumber2PropagationsThatFoundConflict=2168738
%%%mzn-stat: circuitNumber2TotalFixedEdgesAtConflict=95491588
%%%mzn-stat: circuitNumber2NumberOfConflicts=2168738
%%%mzn-stat: circuitNumber2PropagationsThatPruned=1704919
%%%mzn-stat: circuitNumber2PropagationsTotal=6675505
%%%mzn-stat: AverageConflictSize=26.818442997996517
%%%mzn-stat: NumUnitNogoodsLearned=0
%%%mzn-stat: AverageLearnedNogoodLength=35.34850303043156
%%%mzn-stat: AverageBacktrackAmount=0
%%%mzn-stat: AverageLbd=20.156408041297258
%%%mzn-stat: 2AutonomousSearchNumBackupCalled=750
%%%mzn-stat: 2AutonomousSearchNumPredicatesRemoved=0
%%%mzn-stat: 2AutonomousSearchNumCalls=752
%%%mzn-stat: 2AutonomousSearchNumPredicatesAdded=6120
%%%mzn-stat: 2AutonomousSearchAverageSizeOfHeap=5.0186170212765955
%%%mzn-stat: 2AutonomousSearchNumAssignedPredicatesEncountered=3774
%%%mzn-stat-end
